
--- Job bchfcnet.gms Start 02/09/22 15:12:07 34.3.0 rac355f3 WEX-WEI x86 64bit/MS Windows
--- Applying:
    C:\GAMS\34\gmsprmNT.txt
--- GAMS Parameters defined
    Input C:\Users\dekhi\Desktop\gamsworld\FCNetLib\test\bchfcnet.gms
    PageSize 0
    ScrDir C:\Users\dekhi\Desktop\gamsworld\FCNetLib\test\225a\
    SysDir C:\GAMS\34\
    LogOption 3
    ErrMsg 1
    ErrorLog 99
    IDE 1
    ResLim 3600
    LstTitleLeftAligned 1
Licensee: Eval License                                   S211214|0002AW-GEN
          Ostfalia Hochschule fuer angewandte Wissenschaften        DCE1645
          C:\Users\dekhi\Documents\GAMS\gamslice.txt
          License Admin: Mohamed Ali Dekhil, dekhil.medali@gmail.com       
          Evaluation license: Not for commercial or production use
GAMS 34.3.0   Copyright (C) 1987-2021 GAMS Development. All rights reserved
--- Starting compilation
--- bchfcnet.gms(34) 2 Mb
--- . decl.gms(15) 2 Mb
--- bchfcnet.gms(38) 2 Mb
--- . sp150x300b.inc(660) 3 Mb
--- bchfcnet.gms(67) 3 Mb
--- . equs.gms(20) 3 Mb
--- bchfcnet.gms(97) 3 Mb
--- call rm -f bchout_i.gdx startcut.txt startheur.txt cuthist.gdx agap.txt rgap.txt cntfail.txt
--- bchfcnet.gms(118) 3 Mb
--- Starting execution: elapsed 0:00:00.091
--- bchfcnet.gms(718) 4 Mb
--- GDX File (execute_unload) C:\Users\dekhi\Desktop\gamsworld\FCNetLib\test\net.gdx
--- bchfcnet.gms(809) 4 Mb
--- GDXin=C:\Users\dekhi\Desktop\gamsworld\FCNetLib\test\points\sp150x300b.gdx
--- GDX File (execute_load) C:\Users\dekhi\Desktop\gamsworld\FCNetLib\test\points\sp150x300b.gdx
--- Generating MIP model master
--- bchfcnet.gms(813) 4 Mb
---   451 rows  601 columns  1,501 non-zeroes
---   300 discrete-columns
--- Executing CPLEX (Solvelink=2): elapsed 0:00:00.109

IBM ILOG CPLEX   34.3.0 rac355f3 Released Feb 25, 2021 WEI x86 64bit/MS Window

--- GAMS/Cplex Link licensed for continuous and discrete problems.

Reading parameter(s) from "C:\Users\dekhi\Desktop\gamsworld\FCNetLib\test\cplex.op2"
>>  mipstart 1
Finished reading from "C:\Users\dekhi\Desktop\gamsworld\FCNetLib\test\cplex.op2"

--- Space for names approximately 0.02 Mb
--- Use option 'names no' to turn use of names off
--- GMO memory 0.62 Mb (peak 0.63 Mb)
--- Dictionary memory 0.00 Mb
--- Cplex 20.1.0.0 link memory 0.02 Mb (peak 0.07 Mb)
--- Starting Cplex

Version identifier: 20.1.0.0 | 2020-11-10 | 9bedb6d68
CPXPARAM_Threads                                 1
CPXPARAM_MIP_Display                             4
CPXPARAM_TimeLimit                               3600
CPXPARAM_MIP_Tolerances_AbsMIPGap                0
CPXPARAM_MIP_Tolerances_MIPGap                   0
Generic callback                                 0x50
Processing 1 MIP starts.
MIP start 'm1' defined solution with objective 56.0000.
1 of 1 MIP starts provided solutions.
MIP start 'm1' defined initial solution with objective 56.0000.
Tried aggregator 3 times.
MIP Presolve eliminated 137 rows and 129 columns.
MIP Presolve added 14 rows and 0 columns.
MIP Presolve modified 252 coefficients.
Aggregator did 84 substitutions.
Reduced MIP has 243 rows, 355 columns, and 734 nonzeros.
Reduced MIP has 190 binaries, 0 generals, 0 SOSs, and 0 indicators.
Presolve time = 0.02 sec. (2.75 ticks)
Probing fixed 1 vars, tightened 0 bounds.
Probing time = 0.00 sec. (0.08 ticks)
Tried aggregator 1 time.
Detecting symmetries...
MIP Presolve eliminated 14 rows and 23 columns.
MIP Presolve modified 4 coefficients.
Reduced MIP has 229 rows, 332 columns, and 699 nonzeros.
Reduced MIP has 177 binaries, 0 generals, 0 SOSs, and 0 indicators.
Presolve time = 0.00 sec. (1.69 ticks)
Probing time = 0.00 sec. (0.07 ticks)
Clique table members: 3.
MIP emphasis: balance optimality and feasibility.
MIP search method: dynamic search.
Parallel mode: none, using 1 thread.
Tried aggregator 1 time.
LP Presolve eliminated 152 rows and 233 columns.
Aggregator did 45 substitutions.
Reduced LP has 32 rows, 54 columns, and 123 nonzeros.
Presolve time = 0.00 sec. (0.20 ticks)
Initializing dual steep norms . . .

Iteration log . . .
Iteration:     1   Dual objective     =            34.636342
Initializing dual steep norms . . .
Root relaxation solution time = 0.00 sec. (0.35 ticks)

        Nodes                                         Cuts/
   Node  Left     Objective  IInf  Best Integer    Best Bound    ItCnt     Gap

*     0+    0                           56.0000       32.0000            42.86%
Found incumbent of value 56.000000 after 0.02 sec. (8.42 ticks)
      0     0       40.2608    24       56.0000       40.2608       15   28.11%
      0     0       45.3647    28       56.0000      Cuts: 49       44   18.99%
      0     0       48.7001    28       56.0000      Cuts: 56       85   13.04%
      0     0       50.6068    32       56.0000      Cuts: 35      108    9.63%
      0     0       51.2661    37       56.0000      Cuts: 32      131    8.45%
      0     0       52.2066    30       56.0000      Cuts: 40      146    6.77%
      0     0       53.7733    30       56.0000      Cuts: 26      162    3.98%
      0     0       54.0009    16       56.0000      Cuts: 16      175    3.57%
      0     0       54.0009    17       56.0000       Cuts: 8      183    3.57%
      0     0       54.5000     6       56.0000       Cuts: 3      194    2.68%
      0     0       55.0000     3       56.0000       Cuts: 2      197    1.79%
      0     0        cutoff             56.0000       55.0000      204    1.79%
Elapsed time = 0.13 sec. (65.70 ticks, tree = 0.01 MB, solutions = 1)

Clique cuts applied:  1
Cover cuts applied:  10
Implied bound cuts applied:  5
Flow cuts applied:  35
Mixed integer rounding cuts applied:  3
Zero-half cuts applied:  3
Multi commodity flow cuts applied:  3
Gomory fractional cuts applied:  10

Root node processing (before b&c):
  Real time             =    0.13 sec. (65.72 ticks)
Sequential b&c:
  Real time             =    0.00 sec. (0.00 ticks)
                          ------------
Total (root+branch&cut) =    0.13 sec. (65.72 ticks)

--- MIP status (101): integer optimal solution.
--- Cplex Time: 0.12sec (det. 65.72 ticks)

--- Fixing integer variables and solving final LP...

Version identifier: 20.1.0.0 | 2020-11-10 | 9bedb6d68
CPXPARAM_Advance                                 2
CPXPARAM_Threads                                 1
CPXPARAM_MIP_Display                             4
CPXPARAM_TimeLimit                               3600
CPXPARAM_MIP_Tolerances_AbsMIPGap                0
CPXPARAM_MIP_Tolerances_MIPGap                   0
Tried aggregator 1 time.
LP Presolve eliminated 450 rows and 601 columns.
All rows and columns eliminated.
Presolve time = 0.00 sec. (0.23 ticks)

--- Fixed MIP status (1): optimal.
--- Cplex Time: 0.00sec (det. 0.41 ticks)


Proven optimal solution
MIP Solution:           56.000000    (204 iterations, 0 nodes)
Final Solve:            56.000000    (0 iterations)

Best possible:          56.000000
Absolute gap:            0.000000
Relative gap:            0.000000

--- Reading solution for model master
*** Status: Normal completion
--- Job bchfcnet.gms Stop 02/09/22 15:12:08 elapsed 0:00:00.302
